Version identifier: 20.1.0.0 | 2020-11-10 | 9bedb6d68
Tried aggregator 2 times.
MIP Presolve eliminated 938 rows and 507 columns.
MIP Presolve modified 2362 coefficients.
Aggregator did 111 substitutions.
Reduced MIP has 1360 rows, 1047 columns, and 4465 nonzeros.
Reduced MIP has 186 binaries, 861 generals, 0 SOSs, and 0 indicators.
Presolve time = 0.01 sec. (5.57 ticks)
Probing fixed 30 vars, tightened 328 bounds.
Probing time = 0.00 sec. (0.88 ticks)
Tried aggregator 1 time.
Detecting symmetries...
MIP Presolve eliminated 585 rows and 30 columns.
MIP Presolve modified 79 coefficients.
Reduced MIP has 775 rows, 1017 columns, and 2530 nonzeros.
Reduced MIP has 222 binaries, 795 generals, 0 SOSs, and 0 indicators.
Presolve time = 0.01 sec. (2.74 ticks)
Probing time = 0.00 sec. (0.18 ticks)
Clique table members: 5.
MIP emphasis: balance optimality and feasibility.
MIP search method: dynamic search.
Parallel mode: deterministic, using up to 24 threads.
Root relaxation solution time = 0.01 sec. (2.07 ticks)

        Nodes                                         Cuts/
   Node  Left     Objective  IInf  Best Integer    Best Bound    ItCnt     Gap

      0     0        0.0000    35                      0.0000      258         
      0     0        0.0000    70                    Cuts: 56      297         
*     0+    0                           11.0000        0.0000           100.00%
      0     0        0.7500    66       11.0000      Cuts: 80      362   93.18%
      0     0        1.1250    80       11.0000      Cuts: 46      418   89.77%
      0     0        1.2000   111       11.0000      Cuts: 22      436   89.09%
      0     0        1.2000    99       11.0000  ZeroHalf: 16      448   89.09%
      0     0        1.2273   114       11.0000      Cuts: 30      467   88.84%
      0     0        1.5238   111       11.0000      Cuts: 49      485   86.15%
      0     0        1.5238   124       11.0000      Cuts: 17      491   86.15%
*     0+    0                            9.0000        1.5238            83.07%
      0     0        cutoff              9.0000        9.0000      491    0.00%
Elapsed time = 0.54 sec. (88.48 ticks, tree = 0.01 MB, solutions = 2)

Implied bound cuts applied:  16
Flow cuts applied:  4
Mixed integer rounding cuts applied:  6
Zero-half cuts applied:  70
Lift and project cuts applied:  4
Gomory fractional cuts applied:  8

Root node processing (before b&c):
  Real time             =    0.54 sec. (88.55 ticks)
Parallel b&c, 24 threads:
  Real time             =    0.00 sec. (0.00 ticks)
  Sync time (average)   =    0.00 sec.
  Wait time (average)   =    0.00 sec.
                          ------------
Total (root+branch&cut) =    0.54 sec. (88.55 ticks)

Solution status = Optimal
Solution LB = 9
Solution UB = 9
Runtime = 0.548359 seconds
	Command being timed: "/home/min/git_repos/CS598MEBProject/CNT-ILP/build/cnt -s 2 ./output/k8_n15/simC_c1_k8_n15_u2_s1_del04.input-right.cnp"
	User time (seconds): 8.34
	System time (seconds): 0.06
	Percent of CPU this job got: 1439%
	Elapsed (wall clock) time (h:mm:ss or m:ss): 0:00.58
	Average shared text size (kbytes): 0
	Average unshared data size (kbytes): 0
	Average stack size (kbytes): 0
	Average total size (kbytes): 0
	Maximum resident set size (kbytes): 73344
	Average resident set size (kbytes): 0
	Major (requiring I/O) page faults: 0
	Minor (reclaiming a frame) page faults: 15511
	Voluntary context switches: 3801
	Involuntary context switches: 1151
	Swaps: 0
	File system inputs: 0
	File system outputs: 16
	Socket messages sent: 0
	Socket messages received: 0
	Signals delivered: 0
	Page size (bytes): 4096
	Exit status: 0
